generated by phonopy                    
    1.000000000000000     
     3.1824910678533911    0.0000000000000000    0.0000000000000000
    -1.5912455339266955    2.7561181120781018   -0.0000000000000000
     0.0000000000000000    0.0000000000000000   24.0235132147428381
   Mo   S 
     1     2
Direct
  0.3333333333333357  0.6666666666666643  0.5000000000000000
  0.6666666666666643  0.3333333333333357  0.4350274348978412
  0.6666666666666643  0.3333333333333357  0.5649725651021589
 
  0.00000000E+00  0.00000000E+00  0.00000000E+00
  0.00000000E+00  0.00000000E+00  0.00000000E+00
  0.00000000E+00  0.00000000E+00  0.00000000E+00
